p cnf 150 330
-109 -77 -129 0
77 109 62 0
80 100 60 0
85 -68 -121 0
119 -71 -124 0
148 83 33 0
145 56 81 0
-40 -148 -94 0
57 118 -58 0
-52 80 -137 0
86 88 -130 0
32 -84 68 0
76 -147 15 0
40 146 138 0
-126 88 140 0
121 108 -16 0
139 -81 -57 0
10 7 -133 0
-102 127 111 0
150 112 -135 0
-115 61 -104 0
122 40 -107 0
-107 80 63 0
-38 110 -65 0
51 129 112 0
-35 40 95 0
75 -34 -94 0
-41 113 138 0
-107 148 -19 0
69 77 -20 0
-25 27 -148 0
-12 -132 -100 0
-75 36 -48 0
-70 96 48 0
37 -24 -71 0
-19 -12 138 0
74 29 -44 0
-52 91 40 0
64 90 -24 0
34 73 -2 0
-106 -34 97 0
-33 -141 -102 0
-55 144 51 0
-147 -111 149 0
-66 59 14 0
82 -48 -136 0
57 -55 -134 0
-143 65 -74 0
137 130 -149 0
18 -1 150 0
61 102 -47 0
-145 -11 62 0
-4 -150 -3 0
-95 71 85 0
100 7 -112 0
119 70 -49 0
-11 85 -134 0
129 -130 111 0
-71 -16 96 0
88 97 -126 0
107 74 13 0
74 53 -52 0
-2 -39 117 0
-62 -43 128 0
-1 28 29 0
45 -140 -73 0
-3 78 15 0
149 146 -13 0
146 -21 -87 0
50 58 63 0
37 -76 88 0
132 23 59 0
-109 47 33 0
148 -82 94 0
-112 131 -118 0
-76 -27 -24 0
56 -121 97 0
-90 -10 -117 0
-68 -47 10 0
-72 -89 105 0
114 -105 -63 0
-74 -138 -3 0
25 -112 -103 0
-98 65 -72 0
30 103 -80 0
-11 115 -78 0
93 143 3 0
107 -62 -138 0
71 -91 49 0
-16 -67 77 0
-8 64 55 0
-51 -101 1 0
-12 35 126 0
85 -123 78 0
-3 31 -140 0
19 44 -50 0
-49 -87 84 0
39 141 130 0
-92 147 -63 0
138 83 -16 0
82 -109 73 0
-129 -150 67 0
141 131 -117 0
-143 129 -63 0
-40 143 91 0
-37 115 70 0
-23 29 40 0
-2 108 -100 0
1 78 -27 0
141 -132 111 0
142 118 60 0
-29 -69 148 0
139 -98 -82 0
68 -83 25 0
-103 85 55 0
-100 -43 -138 0
129 -65 -94 0
-101 -36 77 0
145 -43 16 0
18 -33 -1 0
67 107 -57 0
60 -53 -50 0
-139 101 -32 0
137 143 115 0
118 -88 40 0
-122 -144 -68 0
73 -116 101 0
139 -31 97 0
-120 91 -51 0
81 110 109 0
-91 -101 -120 0
-80 43 12 0
-124 60 54 0
-108 -8 -29 0
-76 13 -26 0
28 -50 25 0
-36 -37 42 0
-52 -5 9 0
148 40 -63 0
-4 -128 51 0
112 -78 1 0
-111 -86 88 0
15 -87 6 0
30 37 -8 0
12 -92 49 0
115 123 -19 0
-90 21 143 0
144 147 -114 0
143 -148 -150 0
-105 -60 -85 0
-132 15 34 0
-106 -23 74 0
40 24 74 0
-82 125 -4 0
20 86 -49 0
-145 -121 47 0
-87 -13 11 0
-60 66 -92 0
96 -23 -87 0
-126 -55 -145 0
-50 72 -77 0
30 -145 9 0
-134 51 -147 0
-149 101 57 0
88 -106 -9 0
-38 52 -60 0
132 -121 -147 0
-52 -136 43 0
86 -100 82 0
-142 28 136 0
24 13 -12 0
101 34 -6 0
44 104 -83 0
131 62 -86 0
-87 92 -77 0
-72 -88 16 0
37 47 -97 0
34 -56 61 0
34 -96 134 0
63 107 -128 0
-30 -41 -81 0
67 -99 -40 0
-90 -31 20 0
-150 36 19 0
-103 -8 139 0
-113 52 127 0
-18 -33 5 0
-3 -132 99 0
63 -134 21 0
141 104 -113 0
-132 -42 12 0
-49 123 -90 0
72 -34 -12 0
136 66 -96 0
58 117 -64 0
14 126 -78 0
41 90 -101 0
-12 -85 -41 0
142 113 -13 0
66 -83 -132 0
-73 -103 94 0
75 123 -65 0
-150 -19 66 0
34 -92 -54 0
138 -28 108 0
-65 12 -28 0
117 83 86 0
65 -10 -37 0
-2 -125 11 0
1 59 60 0
-119 104 -66 0
140 -24 2 0
-100 -73 114 0
119 -137 -36 0
65 -124 -5 0
-107 -11 -63 0
-14 134 -35 0
-7 34 136 0
-39 -101 93 0
42 -38 -92 0
137 -19 -44 0
119 -49 -90 0
-41 61 -135 0
108 -134 87 0
-69 30 -65 0
-112 -136 148 0
35 52 -137 0
-32 -112 -143 0
-54 -107 127 0
72 -71 10 0
68 -135 149 0
-95 119 70 0
52 -75 124 0
-38 -65 109 0
41 -84 -69 0
-18 -148 -43 0
45 -117 -144 0
-105 -118 -17 0
-11 -119 49 0
42 70 -73 0
-119 59 -69 0
-112 -74 126 0
-9 -84 102 0
-114 -75 96 0
-41 -69 147 0
87 66 -139 0
-45 -19 82 0
-149 -5 126 0
-102 101 4 0
109 -45 87 0
-1 -108 107 0
-87 -63 76 0
126 122 81 0
56 -22 -113 0
-63 -103 -36 0
88 -115 116 0
129 80 54 0
24 42 -21 0
94 46 -63 0
133 78 -125 0
88 150 109 0
68 -51 32 0
119 -43 -23 0
57 -95 54 0
17 55 -31 0
41 65 -58 0
87 -50 -106 0
-135 -22 146 0
88 -9 -34 0
105 35 94 0
34 18 120 0
-97 1 -125 0
4 114 67 0
98 102 -84 0
39 -73 32 0
142 -129 148 0
-109 -54 144 0
-129 -18 141 0
-54 13 145 0
-79 73 -131 0
28 -114 -124 0
121 109 20 0
-15 -7 -118 0
-88 72 67 0
-130 -59 150 0
-60 -69 88 0
18 22 -129 0
126 -15 -61 0
107 -126 -69 0
116 7 -112 0
86 -43 42 0
-61 -128 -138 0
-142 -110 -42 0
58 -106 -86 0
-141 -109 38 0
90 12 -130 0
-150 53 78 0
129 -21 108 0
-87 37 -73 0
-116 -87 -115 0
x -3 -6 -7 -9 -11 17 -19 -21 -24 28 -29 30 -31 -36 -37 40 -42 -44 -47 -48 -49 -50 51 52 -53 56 57 -59 -62 63 65 -68 -70 -73 74 -75 76 82 83 84 -85 -87 -88 -89 90 -91 92 94 -95 -96 97 -99 -100 -101 -105 -107 -110 -111 -114 116 117 -122 -123 129 131 -132 133 -136 -137 -138 142 144 145 -147 148 -149 -150 0
x 2 3 -4 -9 -10 -14 18 -19 20 21 22 23 24 -25 -26 29 -30 -32 -33 -34 -38 -41 42 -43 -48 49 -50 -51 52 53 55 57 58 59 63 64 -65 -72 -74 -79 -81 -82 83 85 86 -87 88 -92 93 94 -95 97 -98 104 -105 106 107 111 112 113 -120 -122 124 -125 -126 129 -130 131 132 -139 141 142 -143 144 147 -149 -150 0
x 2 -3 4 -6 8 9 11 13 18 -19 20 21 25 27 -32 -38 41 -44 46 47 49 53 -54 57 -58 59 60 61 62 69 70 -71 -72 -73 -75 76 -78 79 -80 -81 82 -83 -84 -87 88 89 -90 -91 95 -96 -97 98 -100 -101 102 -103 106 -108 110 113 -114 -122 -124 127 130 -132 -136 -139 -140 -141 143 144 -145 -149 -150 0
x -2 6 -7 -8 10 15 -17 18 -19 22 -26 -28 -29 -31 -32 34 -37 39 40 -41 42 44 -46 50 53 56 -57 59 -62 -63 64 66 -67 69 70 -71 73 74 76 -79 -83 -84 -86 91 94 -96 -97 101 104 -105 -107 108 -110 112 -115 117 -119 120 -122 126 128 129 -131 -132 -133 -135 -137 -139 140 -143 145 147 -148 -150 0
x -1 3 4 -6 -7 -8 9 -12 13 -17 -18 -19 22 -29 -32 -35 37 -38 41 42 -44 46 -47 49 -52 -53 56 58 -59 62 65 66 -67 -69 -72 73 -75 79 81 -83 -89 -90 -91 93 95 -96 100 -101 102 -103 104 108 -109 -110 -112 -114 115 120 -121 -122 -123 -124 128 -129 -130 132 133 -134 135 136 137 -141 142 143 146 0
x 1 -3 7 9 11 -16 -22 -24 -25 27 28 -29 31 32 35 -37 -39 41 -42 43 -46 47 -48 -49 50 -51 53 -54 56 -57 58 -63 64 65 66 67 68 69 -70 -72 76 80 81 82 84 85 -87 -88 -89 -91 93 94 98 -99 102 -104 105 -108 109 -114 116 -118 -119 124 -125 126 -127 131 -132 -134 -139 -140 -142 -145 -147 -149 0
x -1 -2 4 5 9 11 -18 -20 -21 -23 24 25 -26 28 -30 -31 35 36 -37 -39 -40 -41 44 45 46 48 49 50 -53 54 -57 60 -62 63 -65 67 -68 -70 72 -73 74 -78 -79 -80 81 82 83 90 91 -92 94 -96 -97 -98 -99 -101 105 106 108 110 -111 -113 114 116 117 118 123 -125 127 128 -130 -134 136 -137 -140 143 144 145 -149 0
x 1 2 -7 -9 -11 -12 -14 -17 18 -19 -20 21 22 -23 25 -27 28 -33 -37 -38 -40 41 42 -44 45 -48 49 50 -53 63 -64 65 -67 -68 -70 -72 -73 -75 -78 80 87 88 -89 -91 92 -96 -97 -98 101 -103 -104 106 107 -109 -110 -111 112 116 -120 -121 122 123 -128 129 -130 133 -135 -139 -141 -143 -144 148 0
x -1 -5 11 16 -17 19 -21 -22 -25 26 29 -32 -33 34 -35 36 -38 40 41 -42 -45 -47 48 -54 55 56 -57 -60 -63 -64 -67 68 -69 -70 71 -72 -73 74 -75 80 -81 -82 -87 -88 -90 -92 -93 96 97 98 99 101 103 104 106 108 110 -111 114 -115 -118 119 -120 -124 125 -128 129 132 133 -134 -135 138 139 -141 143 -144 146 -147 -148 149 150 0
x 1 -4 -7 8 11 -13 16 -20 21 -22 -23 -25 26 29 -30 -31 -33 -35 36 -37 38 -42 -44 48 50 -53 -54 55 57 59 62 65 69 -71 -72 74 -76 -78 -79 -80 -81 -82 84 85 -86 -88 91 -92 93 -94 -98 -99 100 101 102 -103 104 -106 -107 -108 -110 -111 112 -113 -114 116 118 119 120 -121 -125 126 -127 -129 -131 -133 136 -138 -139 140 -141 -147 149 0
x -3 -6 8 -12 13 -16 17 -19 24 -25 28 31 32 -34 36 -38 -39 -41 42 43 -44 -47 51 53 55 56 -57 60 61 65 66 67 -68 -69 -70 74 -78 79 85 87 88 89 91 -92 -93 -94 -95 -96 97 -99 -101 104 105 106 108 111 -113 118 -123 -124 128 129 130 -131 132 135 136 137 138 140 143 144 145 0
x -2 -3 4 -9 12 14 -15 -16 17 -18 19 -22 -23 -24 -25 -26 28 29 31 33 35 36 -38 -39 -40 -41 -42 -44 45 -47 -49 51 52 -53 56 57 58 -60 61 64 65 -69 70 -71 -78 -79 -82 -83 -85 86 87 -90 -91 -92 -93 95 -96 98 -99 -100 101 -102 -103 105 -107 108 109 110 -115 116 -117 121 122 124 127 -128 -129 -131 -132 -135 137 -138 141 146 0
x 1 2 -4 9 10 -12 -13 14 15 17 19 21 -23 24 26 29 -32 -33 34 -35 -36 -44 45 -47 -49 54 -55 58 -59 -64 -66 69 -71 -72 74 -75 76 79 -80 -81 -82 87 -88 90 91 92 96 -97 -98 99 -100 -101 -104 -106 -109 110 -111 112 113 -114 115 116 117 119 -120 122 124 125 129 130 131 -133 137 -140 -143 145 148 149 0
x 3 -4 5 14 17 18 19 -20 -23 -25 26 27 28 -30 34 36 -38 39 -40 -42 43 45 46 -48 49 -51 -52 -53 -54 -56 -57 -60 62 65 66 -67 68 -69 72 74 76 -78 81 84 86 88 91 92 94 95 97 98 -99 -100 101 102 105 106 107 -112 113 -114 -116 -120 -124 -125 -126 -130 -131 -132 -133 -135 140 142 143 -147 150 0
x -1 2 3 6 -9 -11 -12 -15 17 21 -22 -25 26 -27 29 33 37 -38 -40 -43 45 46 -47 -48 50 55 -58 59 60 61 -69 -70 -71 -77 78 -79 80 -81 -82 -85 -88 89 -90 -92 94 -97 99 100 -102 103 -105 -106 109 -110 111 -113 114 -116 117 -118 119 120 123 124 125 -126 -127 130 -131 -132 135 136 -138 139 -140 144 -145 -147 -148 0
x -3 4 5 -6 7 -8 9 -10 13 14 -15 -16 20 -21 22 -24 25 26 -30 32 34 36 37 -38 -39 41 42 44 -53 -61 62 -63 -64 -68 71 -73 74 76 77 -78 79 -80 -82 -83 87 90 92 96 -97 -98 101 103 -105 -106 -108 -111 -112 113 116 117 -123 -125 127 -128 129 -132 134 -135 -136 138 -140 -141 -147 149 150 0
x 1 -4 -5 6 -7 8 9 -11 -12 13 14 -15 -17 18 -19 21 28 -30 31 -32 -33 -38 -47 48 50 51 -53 -56 58 -59 -60 -61 -63 -70 -71 72 -74 -75 77 78 -82 83 -85 -88 -90 93 97 -98 100 101 -102 103 104 -106 107 112 114 115 116 118 -119 120 124 125 -126 -127 -135 138 139 -141 144 146 147 150 0
x -1 7 -12 -13 14 -16 -22 -25 -26 27 29 -36 39 40 -41 -42 -45 46 47 48 49 -50 53 -55 60 61 -63 -65 -66 67 68 70 -71 -74 75 -79 -85 -91 -92 93 -98 102 103 -107 108 -112 116 -119 120 -121 -123 -124 -126 128 129 -131 -132 -136 -139 140 -141 -144 -145 150 0
x 2 -3 5 -6 -7 8 -11 13 14 -15 16 -17 -18 24 25 26 -27 -28 33 35 -36 37 -39 -40 41 43 -45 48 -49 -50 52 57 -59 -60 -61 -62 63 -64 65 66 68 70 -74 75 -77 -78 82 86 -88 91 93 96 -97 100 -101 103 104 106 -113 114 115 -116 -117 -118 -122 123 -126 -128 -130 -134 136 138 140 141 -142 147 148 -149 150 0
x 1 -4 -5 7 -8 -9 -10 -11 -15 -17 -18 19 20 21 22 23 24 25 26 28 29 -30 31 -32 33 34 38 -41 -42 -43 -45 48 52 56 -57 58 -60 61 64 -66 67 69 -70 -71 73 75 77 78 80 -81 82 83 -86 -90 91 94 95 97 -98 -99 100 -101 102 -103 -105 -106 -107 -110 -111 -113 -116 -118 -119 -120 121 122 129 133 -134 136 -140 -142 -143 144 -145 146 148 150 0
x 2 -3 6 7 -8 10 -11 -14 15 16 -18 24 25 26 27 -28 33 -34 37 -39 -42 -43 -44 46 47 -48 -52 55 -56 -57 -58 -59 -63 65 66 -67 70 71 73 -75 77 82 86 -90 91 -95 96 -98 -106 111 -112 113 -115 -118 119 120 -126 -128 -130 -131 132 -133 135 136 -137 138 142 -144 145 -146 150 0
x 1 4 -6 -10 -14 -16 17 -18 -19 -21 -22 23 24 -25 -29 30 31 -32 34 36 -38 39 40 42 45 48 -49 -50 -51 53 -54 56 -57 61 62 -65 66 67 -68 72 -74 76 77 -84 -85 87 88 90 91 -92 93 -94 -97 -98 -99 -101 104 105 106 109 -111 113 117 118 120 -121 -123 125 126 -127 128 -130 -131 132 -137 -139 140 -144 -145 -149 0
x -2 -3 4 -5 9 10 11 13 14 -15 -17 -20 23 24 -28 -31 34 -39 -40 42 -44 46 47 -48 50 51 53 -54 57 -58 59 60 62 -65 69 -71 -72 -75 -81 82 -84 86 -87 89 -90 91 92 -98 99 100 -101 -105 -107 -109 -116 117 -118 -120 -123 127 130 132 133 134 -136 138 -139 -140 141 -144 -146 147 149 150 0
x -2 -3 4 8 13 14 -15 -18 -19 -21 24 25 27 30 31 32 -33 -37 -43 -44 -51 54 58 61 -65 66 67 69 -70 71 72 -76 77 -78 86 -87 -88 -90 -93 95 99 -101 -102 103 -104 110 -111 -112 -113 115 116 -117 118 -120 -121 -123 126 129 130 -133 136 138 -141 143 -144 147 -149 0
x 3 -4 5 -6 -8 -9 -10 -12 -14 -19 -20 -22 24 25 -27 29 -30 -31 34 -35 -38 41 44 45 46 47 -48 49 50 52 -54 -55 56 -58 61 -63 -64 -65 -67 69 -70 71 -74 76 -77 81 82 -84 -86 -87 -88 91 -96 -100 101 -103 106 108 110 115 -117 119 -120 121 122 -131 133 -135 -139 140 -146 -148 0
x -2 4 7 -8 -9 12 15 18 -20 21 -22 -24 -27 29 -30 -32 -34 36 39 41 -46 48 -49 50 -52 -53 -55 56 58 -59 -60 68 70 71 -73 74 75 -77 -79 81 82 -88 -90 -93 96 -97 99 100 104 -106 -109 112 114 116 119 -121 126 130 -131 -132 -135 136 142 -144 -145 -146 148 -150 0
x 2 -6 -9 10 -12 14 17 22 24 25 -26 28 32 -33 34 35 -40 44 46 -47 -48 -51 52 53 -54 -55 -58 59 60 61 -62 63 -65 -67 68 -71 72 76 -80 -83 84 -86 -87 -89 -91 -92 -93 -95 96 -98 99 102 -103 -104 -109 110 -111 115 -120 -121 122 123 126 -127 132 137 141 -143 145 -147 -148 150 0
x 3 4 -5 -6 8 9 13 15 17 18 -19 20 22 23 -25 -30 -31 33 -34 37 38 44 -45 46 -48 49 -50 -51 -52 -55 -56 57 59 62 66 -67 71 -72 73 74 -75 -76 78 -80 81 83 -85 -86 -87 -88 -90 -91 -92 93 94 96 97 -100 -104 -105 -106 107 108 111 116 -118 -123 -124 -126 127 128 -135 -136 137 -138 141 -143 144 149 -150 0
x 1 -3 -5 7 -10 11 12 -14 -15 -16 19 20 22 23 24 -26 -29 30 35 -37 -38 40 -48 -50 51 53 -55 59 62 63 -65 68 -70 71 73 -74 -77 80 -81 82 -83 85 -87 90 -92 95 96 99 102 104 106 112 113 116 118 -120 122 -125 -129 -133 -136 137 138 139 -140 -141 142 -145 146 -147 -148 -149 150 0
x 2 -4 -6 14 16 17 -18 19 -20 21 22 24 26 -27 -29 -30 31 -32 -35 -36 39 -42 -45 46 -48 -49 -50 -51 -53 -55 -56 57 58 -59 60 62 -63 -70 71 -73 -74 -87 -88 89 -90 -92 -93 -97 99 103 105 -106 107 113 -115 -119 122 -123 124 -125 -129 132 -134 -136 -139 140 -141 -142 146 147 0
